3 3 2
25 2 91 1 7 2 93 0 63 1 27 2 22 1 88 0 98 2 1 0 97 2 85 1 78 0 68 2 78 1 53 0 77 2 99 1 4 2 74 1 35 0 72 2 5 1 94 0 38 2 90 
25 1 93 0 69 1 40 2 82 1 35 0 57 1 40 0 34 2 56 0 82 2 65 1 30 0 18 2 75 0 47 2 49 0 83 2 73 0 7 2 91 1 51 0 74 1 49 2 36 1 88 
25 0 41 2 59 0 2 1 51 0 14 1 53 0 4 2 55 1 91 2 16 0 91 1 28 2 59 1 30 2 80 1 61 0 69 1 69 2 72 0 91 1 40 0 88 1 11 2 48 0 28 

-------------
